1543
33 56 46 30 18 81 31 7 67 66 94 29 76 86 23 6 97 35 75 14 61 48 37 59 13 99 1 96 28 26 24 38 83 32 52 82 34 10 60 25 9 27 42 40 36 55 93 17 16 90 98 20 69 47 88 65 54 8 57 5 87 11 15 78 92 79 77 63 95 84 91 41 70 64 73 89 3 39 62 85 80 44 12 49 4 43 51 58 22 68 53 71 74 19 72 21 50 45 2 
